CMD:
./solvers/bin/cadical --plain --no-reduce -t 1600 ./data/cnfs//vgasim_imgfifo-p089/vgasim_imgfifo-p089.89.cnf

c --- [ banner ] -------------------------------------------------------------
c 
c CaDiCaL SAT Solver
c Copyright (c) 2016-2024
c A. Biere, M. Fleury, N. Froleyks, K. Fazekas, F. Pollitt, T. Faller
c JKU Linz, University of Freiburg, TU Wien
c 
c Version 2.1.3 5296d3d2a9bf48c154ab2acb5e44625776d821bf
c g++ (Gentoo 12.3.1_p20230526 p2) 12.3.1 20230526 -Wall -Wextra -O3 -DNDEBUG
c Sat Aug 9 07:26:21 PDT 2025 Linux cedar2.int.cedar.computecanada.ca 5.14.0-362.24.2.el9_3.x86_64 x86_64
c 
c --- [ limit ] --------------------------------------------------------------
c 
c setting time limit to 1600 seconds real time (due to '-t 1600')
c 
c --- [ parsing input ] ------------------------------------------------------
c 
c reading DIMACS file from './data/cnfs//vgasim_imgfifo-p089/vgasim_imgfifo-p089.89.cnf'
c opening file to read './data/cnfs//vgasim_imgfifo-p089/vgasim_imgfifo-p089.89.cnf'
c found 'p cnf 426707 1232778' header
c parsed 1232778 clauses in 0.20 seconds process time
c 
c --- [ options ] ------------------------------------------------------------
c 
c   --compact=false                (different from default 'true')
c   --decompose=false              (different from default 'true')
c   --deduplicate=false            (different from default 'true')
c   --elim=false                   (different from default 'true')
c   --probe=false                  (different from default 'true')
c   --reduce=false                 (different from default 'true')
c   --subsume=false                (different from default 'true')
c   --ternary=false                (different from default 'true')
c   --transred=false               (different from default 'true')
c   --vivify=false                 (different from default 'true')
c 
c --- [ solving ] ------------------------------------------------------------
c 
c time measured in process time since initialization
c 
c  seconds   reductions  redundant   irredundant
c          MB    restarts       trail        variables
c           level   conflicts       glue           remaining
c 
c *  0.20 191  0 0   0    0    0  0% 0 1182355 362787 85%
c {  0.22 193  0 0   0    0    0  0% 0 1182355 362787 85%
c i  0.23 193  1 0   0    1    0 15% 0 1182355 362786 85%
c i  0.29 195 118 0   6  257  240 23% 2 1182355 362774 85%
c i  0.29 195 117 0   7  267  249 23% 2 1182355 362765 85%
c i  0.30 195 116 0   8  271  251 23% 2 1182355 362687 85%
c i  0.32 195 110 0  16  294  273 23% 3 1182355 362573 85%
c i  0.35 196 107 0  21  311  288 23% 3 1182355 362549 85%
c i  0.36 196 102 0  26  330  303 23% 3 1182355 362522 85%
c i  0.37 196 99 0  30  343  315 23% 3 1182355 362519 85%
c i  0.53 197 89 0  44  444  402 24% 3 1182355 362502 85%
c i  0.59 197 89 0  50  468  423 25% 3 1182355 362068 85%
c i  0.59 197 89 0  51  469  423 25% 3 1182355 361279 85%
c i  0.70 197 91 0  53  735  666 34% 3 1182355 361278 85%
c i  0.72 197 91 0  55  840  759 36% 3 1182355 361274 85%
c i  0.72 197 91 0  56  841  759 36% 3 1182355 361271 85%
c i  0.75 197 86 0  59  910  814 35% 3 1182355 361257 85%
c i  0.75 197 85 0  59  911  814 35% 3 1182355 361243 85%
c i  0.75 197 85 0  59  912  814 35% 3 1182355 361229 85%
c i  0.75 197 85 0  59  913  814 35% 3 1182355 361215 85%
c 
c  seconds   reductions  redundant   irredundant
c          MB    restarts       trail        variables
c           level   conflicts       glue           remaining
c 
c i  0.75 197 85 0  59  915  815 35% 3 1182355 361206 85%
c i  0.75 197 85 0  59  916  815 35% 3 1182355 361197 85%
c i  0.75 197 85 0  59  917  815 34% 3 1182355 361188 85%
c i  0.75 197 85 0  59  918  815 34% 3 1182355 360998 85%
c i  0.75 197 85 0  59  919  815 34% 3 1182355 360835 85%
c }  0.77 197 83 0  59 1000  886 35% 3 1182355 360835 85%
c [  0.77 197  0 0  59 1000  886  0% 0 1182355 360835 85%
c O  0.78 197 531 0  59 1003  889 42% 3 1182355 360474 84%
c i  1.56 198 103 0  60 2092 1754 44% 8 1182355 360459 84%
c i  1.58 198 111 0  60 2218 1829 44% 8 1182355 359930 84%
c i  1.59 198 108 0  60 2272 1868 43% 8 1182355 359920 84%
c i  1.60 198 108 0  60 2281 1872 43% 8 1182355 359918 84%
c i  2.04 198 87 0  60 2984 2486 39% 7 1182355 359914 84%
c ]  2.05 198 86 0  60 3000 2497 39% 7 1182355 359914 84%
c {  2.05 198 83 0  60 3000 2497 35% 3 1182355 359914 84%
c F  2.06 198 82 0  60 3005 2502 35% 3 1182355 359904 84%
c i  2.08 198 81 0  60 3029 2524 35% 3 1182355 359893 84%
c i  2.08 198 81 0  60 3030 2524 35% 3 1182355 359880 84%
c i  2.09 198 81 0  60 3031 2524 35% 3 1182355 359877 84%
c i  2.10 198 81 0  60 3032 2524 35% 3 1182355 359874 84%
c 
c  seconds   reductions  redundant   irredundant
c          MB    restarts       trail        variables
c           level   conflicts       glue           remaining
c 
c i  2.31 198 76 0 102 3415 2860 35% 3 1182355 359840 84%
c i  2.59 198 71 0 159 3784 3186 34% 3 1182355 359813 84%
c i  2.61 198 70 0 162 3907 3300 34% 3 1182355 359804 84%
c i  2.62 198 69 0 162 3952 3339 33% 3 1182355 359768 84%
... skipped 50 lines ...
c i  3.06 198 58 0 235 5454 4576 32% 3 1182355 343572 81%
c i  3.06 198 58 0 235 5459 4580 32% 3 1182355 343566 81%
c i  3.07 198 58 0 235 5486 4591 32% 3 1182355 343560 81%
c i  3.07 198 58 0 235 5495 4598 32% 3 1182355 342224 80%
c i  3.07 198 58 0 235 5498 4600 32% 3 1182355 341289 80%
c i  3.07 198 58 0 235 5517 4616 32% 3 1182355 341279 80%
c i  3.09 198 58 0 235 5587 4637 32% 3 1182355 341252 80%
c i  3.10 198 57 0 239 5636 4679 31% 3 1182355 337613 79%
c i  3.13 198 57 0 239 5673 4712 31% 3 1182355 337612 79%
c i  3.13 198 57 0 239 5674 4712 31% 3 1182355 337611 79%
c i  3.13 198 57 0 239 5675 4712 31% 3 1182355 337598 79%
c i  3.13 198 57 0 239 5682 4718 31% 3 1182355 337584 79%
c i  3.14 198 57 0 239 5705 4736 32% 3 1182355 337577 79%
c i  3.14 198 57 0 239 5707 4737 32% 3 1182355 336722 79%
c i  3.14 198 57 0 239 5708 4737 32% 3 1182355 336719 79%
c i  3.14 198 57 0 239 5710 4738 32% 3 1182355 336713 79%
c 
c  seconds   reductions  redundant   irredundant
c          MB    restarts       trail        variables
c           level   conflicts       glue           remaining
c 
c i  3.14 198 57 0 239 5711 4738 32% 3 1182355 336696 79%
c i  3.14 198 57 0 239 5718 4744 32% 3 1182355 335888 79%
c #  3.22 198 56 0 239 6008 4999 32% 3 1182355 335191 79%
c i  3.23 198 56 0 239 6038 5024 32% 3 1182355 335171 79%
c i  3.27 198 56 0 241 6130 5108 32% 3 1182355 334093 78%
c i  3.31 198 55 0 251 6188 5162 32% 3 1182355 333695 78%
c i  3.31 198 55 0 251 6189 5162 32% 3 1182355 333681 78%
c i  3.37 198 55 0 275 6310 5256 32% 3 1182355 331332 78%
c i  3.37 198 55 0 276 6322 5265 32% 3 1182355 331287 78%
c i  3.47 199 53 0 285 6565 5473 32% 3 1182355 330822 78%
c i  3.47 199 53 0 286 6566 5473 32% 3 1182355 328842 77%
c i  3.47 199 53 0 286 6567 5473 32% 3 1182355 328814 77%
c i  3.54 199 53 0 293 6680 5572 32% 3 1182355 328414 77%
c i  3.56 199 53 0 298 6699 5589 32% 3 1182355 328175 77%
c i  3.57 199 52 0 305 6736 5605 32% 3 1182355 328174 77%
c }  3.79 199 51 0 347 7000 5834 32% 3 1182355 328174 77%
c [  3.79 199 86 0 347 7000 5834 39% 7 1182355 328174 77%
c i  3.80 199 85 0 347 7015 5845 39% 7 1182355 328117 77%
c i  3.80 199 85 0 347 7018 5846 39% 7 1182355 320622 75%
c i  3.80 199 85 0 347 7019 5846 39% 7 1182355 320504 75%
c 
c  seconds   reductions  redundant   irredundant
c          MB    restarts       trail        variables
c           level   conflicts       glue           remaining
c 
c ]  3.80 199 85 0 347 7021 5846 39% 7 1182355 320433 75%
c 0  3.80 199 85 0 347 7021 5846 39% 7 1182355 320433 75%
c 
c --- [ result ] -------------------------------------------------------------
c 
s UNSATISFIABLE
c 
c --- [ run-time profiling ] -------------------------------------------------
c 
c process time taken by individual solving procedures
c (percentage relative to process time for solving)
c 
c         3.60  100.00% search
c         2.29   63.45% unstable
c         1.29   35.90% stable
c         0.20    5.58% parse
c         0.02    0.64% lucky
c         0.00    0.00% simplify
c   =================================
c         3.60   94.70% solve
c 
c last line shows process time for solving
c (percentage relative to total process time)
c 
c --- [ statistics ] ---------------------------------------------------------
c 
c chronological:              2744        39.08 %  of conflicts
c conflicts:                  7021      1949.19    per second
c decisions:                 27719      7695.44    per second
c fixed:                    106227        24.89 %  of all variables
c learned:                    6517        92.82 %  per conflict
c learned_lits:             116242       100.00 %  learned literals
c minimized:                     0         0.00 %  learned literals
c shrunken:                  16248        13.98 %  learned literals
c minishrunken:              15587        13.41 %  learned literals
c otfs:                        270         3.85 %  of conflict
c propagations:           52891689        14.68 M  per second
c rephased:                      3      2340.33    interval
c restarts:                    347        20.23    interval
c stabilizing:                   2        28.77 %  of conflicts
c subsumed:                    555         0.05 %  of all clauses
c strengthened:                268         0.02 %  of all clauses
c 
c seconds are measured in process time for solving
c 
c --- [ resources ] ----------------------------------------------------------
c 
c total process time since initialization:         3.80    seconds
c total real time since initialization:            3.82    seconds
c maximum resident set size of process:          196.93    MB
c 
c --- [ shutting down ] ------------------------------------------------------
c 
c exit 20
